NAME: random95
TYPE: TSP
DIMENSION: 95
EDGE_WEIGHT_TYPE: EXPLICIT
EDGE_WEIGHT_FORMAT: FULL_MATRIX
EDGE_WEIGHT_SECTION
0 1320 1320 1320 1320 1320 42 1320 21 1320 34 16 1320 4 1320 1320 21 29 38 15 1320 29 1320 1320 12 1320 1320 1320 1320 1320 1320 1320 1320 36 34 1320 1320 1320 14 1320 1320 42 6 25 1320 1320 1320 1320 1320 22 1320 1320 1320 1320 45 26 1320 36 28 1320 1320 1320 1320 1320 15 20 1320 1320 24 1320 1320 1320 1320 23 18 1320 34 1320 1320 1320 1320 37 1320 32 1320 1320 1320 1320 1320 30 1320 1320 18 1320 1320
1320 0 38 29 29 45 1320 1320 1320 34 1320 1320 1320 1320 52 1320 1320 1320 1320 1320 44 1320 28 1320 1320 1320 8 1320 1320 62 46 27 1320 1320 1320 24 1320 1320 1320 1320 1320 1320 1320 1320 1320 1320 18 1320 15 1320 6 1320 51 1320 1320 1320 1320 1320 1320 19 1320 1320 20 41 1320 1320 31 1320 1320 1320 1320 1320 1320 1320 1320 1320 1320 25 35 17 1320 1320 33 1320 33 1320 1320 37 1320 1320 28 1320 1320 32 53
1320 38 0 1320 25 9 1320 21 1320 1320 45 1320 24 1320 15 19 1320 1320 1320 1320 1320 1320 10 16 1320 1320 1320 1320 1320 1320 11 1320 32 1320 1320 14 1320 37 1320 44 1320 1320 1320 1320 1320 27 1320 24 39 1320 36 10 1320 15 1320 1320 42 1320 1320 20 1320 1320 1320 1320 1320 1320 8 1320 1320 22 1320 1320 1320 1320 1320 1320 1320 17 1320 1320 1320 1320 24 1320 18 1320 29 18 1320 1320 47 1320 1320 12 1320
1320 29 1320 0 1320 1320 23 1320 1320 14 50 1320 1320 1320 1320 1320 38 1320 44 1320 28 49 1320 46 1320 1320 32 1320 45 1320 1320 24 1320 22 1320 32 44 1320 1320 1320 22 1320 1320 1320 29 1320 1320 1320 43 1320 23 34 38 1320 1320 1320 1320 1320 31 33 22 1320 48 23 1320 1320 1320 1320 1320 50 1320 39 15 1320 1320 22 36 26 26 12 12 27 21 1320 1320 1320 24 29 40 39 56 1320 1320 32 1320
1320 29 25 1320 0 25 1320 41 1320 1320 1320 1320 49 1320 32 41 1320 1320 1320 1320 71 1320 17 41 1320 1320 35 1320 1320 90 26 55 54 1320 1320 20 1320 58 1320 1320 1320 1320 1320 1320 1320 1320 18 48 20 1320 30 1320 79 40 1320 1320 1320 1320 1320 17 1320 72 19 1320 1320 1320 23 60 1320 47 1320 1320 1320 1320 1320 1320 1320 27 63 40 1320 1320 39 1320 7 1320 1320 37 1320 1320 23 1320 1320 29 80
1320 45 9 1320 25 0 1320 16 1320 1320 51 1320 26 1320 8 17 1320 1320 1320 1320 1320 1320 17 20 1320 1320 1320 1320 1320 1320 2 1320 29 1320 1320 22 1320 33 1320 48 1320 1320 1320 1320 1320 26 42 24 42 1320 43 19 1320 17 1320 1320 41 1320 1320 26 1320 1320 43 1320 1320 1320 16 1320 1320 25 1320 1320 1320 1320 1320 1320 1320 26 1320 1320 1320 1320 1320 1320 18 1320 38 27 1320 1320 48 1320 1320 21 1320
42 1320 1320 23 1320 1320 0 1320 26 36 26 1320 34 38 1320 1320 21 1320 46 41 1320 26 1320 30 45 1320 1320 1320 1320 1320 1320 1320 1320 19 27 1320 1320 1320 1320 32 4 40 48 25 41 1320 1320 1320 1320 57 1320 26 1320 35 49 50 51 47 14 1320 32 1320 1320 44 29 1320 1320 1320 1320 32 1320 1320 8 1320 1320 21 36 25 1320 30 13 29 14 44 1320 52 6 17 44 38 1320 1320 1320 25 1320
1320 1320 21 1320 41 16 1320 0 1320 1320 1320 1320 17 1320 10 6 1320 1320 1320 1320 1320 1320 31 17 1320 1320 68 1320 1320 1320 15 1320 13 1320 1320 1320 1320 17 1320 39 1320 1320 1320 1320 1320 13 58 11 59 1320 1320 1320 100 12 51 1320 26 1320 1320 41 1320 31 60 1320 1320 1320 1320 20 1320 18 1320 1320 1320 1320 1320 1320 1320 1320 1320 1320 1320 1320 1320 1320 34 34 1320 1320 1320 1320 64 1320 1320 1320 1320
21 1320 1320 1320 1320 1320 26 1320 0 1320 13 1320 1320 19 1320 1320 12 1320 47 14 1320 8 1320 1320 30 1320 1320 1320 1320 1320 1320 1320 1320 31 13 1320 1320 1320 35 1320 1320 25 26 4 1320 1320 1320 1320 1320 30 1320 1320 1320 1320 30 42 1320 24 17 1320 1320 1320 1320 1320 7 40 1320 1320 1320 1320 1320 1320 1320 43 38 32 39 1320 1320 1320 36 38 1320 42 1320 1320 1320 1320 1320 38 1320 1320 1320 1320 1320
1320 34 1320 14 1320 1320 36 1320 1320 0 1320 1320 1320 1320 1320 1320 1320 1320 40 1320 14 1320 1320 1320 1320 1320 34 1320 40 33 1320 15 1320 28 1320 45 36 1320 1320 1320 35 1320 1320 1320 20 1320 1320 1320 49 1320 30 1320 24 1320 1320 1320 1320 1320 1320 44 18 1320 54 9 1320 1320 1320 1320 1320 1320 1320 25 28 1320 1320 27 35 40 14 20 23 27 35 1320 1320 1320 38 43 35 39 61 1320 1320 46 24
34 1320 45 50 1320 51 26 1320 13 1320 0 1320 28 32 50 39 22 1320 1320 24 1320 6 1320 31 1320 1320 1320 1320 1320 1320 51 1320 1320 38 1 1320 1320 1320 1320 9 29 15 38 9 1320 33 1320 34 1320 38 1320 40 1320 35 23 1320 34 21 23 1320 53 42 1320 1320 20 1320 1320 36 1320 27 1320 1320 35 1320 1320 40 1320 45 1320 56 38 46 36 1320 1320 32 28 33 1320 49 1320 1320 1320 40 1320
16 1320 1320 1320 1320 1320 1320 1320 1320 1320 1320 0 1320 17 1320 1320 31 15 27 31 1320 1320 1320 1320 6 28 1320 1320 1320 1320 1320 1320 1320 38 1320 1320 1320 1320 7 1320 1320 1320 17 1320 1320 1320 1320 1320 1320 35 1320 1320 1320 1320 1320 12 1320 1320 1320 1320 1320 1320 1320 1320 29 19 1320 1320 9 1320 41 1320 1320 23 17 1320 27 1320 1320 1320 1320 34 1320 22 1320 1320 1320 1320 1320 23 1320 1320 10 1320 1320
1320 1320 24 1320 49 26 34 17 1320 1320 28 1320 0 1320 23 12 1320 1320 1320 1320 1320 33 34 9 1320 1320 1320 1320 1320 1320 26 1320 15 1320 28 1320 1320 22 1320 23 33 29 1320 1320 1320 8 1320 7 1320 1320 1320 25 1320 9 37 1320 20 41 1320 1320 1320 28 1320 1320 1320 1320 29 17 1320 3 1320 1320 1320 1320 1320 1320 1320 34 1320 1320 1320 1320 32 1320 42 25 30 24 1320 1320 71 1320 1320 27 1320
4 1320 1320 1320 1320 1320 38 1320 19 1320 32 17 1320 0 1320 1320 17 28 35 16 1320 26 1320 1320 12 37 1320 1320 38 1320 1320 1320 1320 32 32 1320 1320 1320 16 1320 1320 41 10 23 1320 1320 1320 1320 1320 25 1320 1320 1320 1320 44 25 1320 36 24 1320 43 1320 1320 1320 12 23 1320 1320 24 1320 1320 1320 1320 27 21 32 30 1320 1320 1320 43 33 1320 30 1320 1320 1320 1320 39 28 1320 1320 21 1320 1320
1320 52 15 1320 32 8 1320 10 1320 1320 50 1320 23 1320 0 12 1320 1320 1320 1320 86 1320 24 19 1320 1320 60 1320 1320 104 6 74 23 1320 1320 29 1320 27 1320 46 1320 1320 1320 1320 1320 21 49 19 50 1320 50 24 95 15 59 1320 36 1320 1320 33 1320 41 50 1320 1320 1320 23 30 1320 23 1320 1320 1320 1320 1320 1320 1320 32 81 54 1320 1320 1320 1320 24 44 42 31 1320 1320 55 1320 1320 1320 95
1320 1320 19 1320 41 17 1320 6 1320 1320 39 1320 12 1320 12 0 1320 1320 1320 1320 1320 1320 29 11 1320 1320 65 1320 1320 1320 16 1320 13 1320 1320 1320 1320 19 1320 34 1320 1320 1320 1320 1320 9 57 7 57 1320 1320 24 95 6 1320 1320 25 1320 1320 38 1320 31 59 1320 1320 1320 26 19 1320 12 1320 1320 1320 1320 1320 1320 1320 1320 1320 1320 1320 1320 1320 1320 34 1320 36 28 1320 1320 64 1320 1320 1320 1320
21 1320 1320 38 1320 1320 21 1320 12 1320 22 31 1320 17 1320 1320 0 36 36 23 1320 18 1320 1320 25 38 1320 1320 39 1320 1320 1320 1320 19 23 1320 1320 1320 33 1320 25 1320 27 15 1320 1320 1320 1320 1320 38 1320 1320 1320 1320 1320 34 1320 36 7 1320 34 1320 1320 1320 10 1320 1320 1320 34 1320 1320 1320 26 1320 1320 20 27 1320 1320 1320 27 25 1320 32 1320 1320 26 1320 37 27 1320 1320 1320 1320 1320
29 1320 1320 1320 1320 1320 1320 1320 1320 1320 1320 15 1320 28 1320 1320 36 0 14 44 1320 1320 1320 1320 17 15 1320 45 16 1320 1320 1320 1320 35 1320 1320 27 1320 21 1320 1320 1320 31 1320 36 1320 1320 1320 1320 49 1320 1320 1320 1320 72 3 1320 64 1320 1320 1320 1320 1320 1320 1320 33 1320 1320 6 1320 26 48 1320 37 31 1320 19 1320 1320 1320 1320 28 1320 11 1320 1320 1320 1320 20 16 1320 51 23 1320 1320
38 1320 1320 44 1320 1320 46 1320 47 40 1320 27 1320 35 1320 1320 36 14 0 51 40 1320 1320 1320 27 2 1320 32 3 1320 1320 1320 1320 27 1320 1320 14 1320 34 1320 1320 1320 1320 50 21 1320 1320 1320 1320 1320 1320 1320 1320 1320 1320 16 1320 1320 37 1320 23 1320 1320 38 42 1320 1320 1320 19 1320 15 34 1320 50 1320 26 10 1320 1320 1320 40 18 1320 6 1320 1320 1320 1320 6 9 1320 1320 36 1320 1320
15 1320 1320 1320 1320 1320 41 1320 14 1320 24 31 1320 16 1320 1320 23 44 51 0 1320 19 1320 1320 27 1320 1320 1320 1320 1320 1320 1320 1320 42 24 1320 1320 1320 28 30 44 28 16 17 1320 1320 1320 1320 1320 16 1320 1320 1320 1320 30 40 1320 21 29 1320 1320 60 1320 1320 12 29 1320 1320 39 51 1320 1320 48 31 28 1320 45 1320 1320 1320 49 46 1320 45 1320 49 45 1320 1320 42 1320 1320 31 1320 1320
1320 44 1320 28 71 1320 1320 1320 1320 14 1320 1320 1320 1320 86 1320 1320 1320 40 1320 0 1320 1320 1320 1320 1320 42 26 39 19 1320 18 1320 1320 1320 1320 31 1320 1320 1320 1320 1320 1320 1320 19 1320 1320 1320 58 1320 41 1320 10 1320 1320 1320 1320 1320 1320 1320 23 1320 64 5 1320 1320 1320 1320 1320 1320 34 14 1320 1320 1320 35 38 1320 11 32 36 32 1320 1320 1320 1320 1320 1320 34 1320 70 25 1320 1320 10
29 1320 1320 49 1320 1320 26 1320 8 1320 6 1320 33 26 1320 1320 18 1320 1320 19 1320 0 1320 36 38 1320 1320 1320 1320 1320 1320 1320 1320 35 6 1320 1320 1320 43 14 29 18 32 4 1320 1320 1320 1320 1320 34 1320 1320 1320 40 25 1320 39 21 20 1320 50 47 1320 1320 14 46 1320 1320 1320 32 1320 1320 34 49 45 36 1320 1320 1320 1320 37 43 37 1320 1320 37 28 35 1320 44 1320 1320 1320 1320 1320
1320 28 10 1320 17 17 1320 31 1320 1320 1320 1320 34 1320 24 29 1320 1320 1320 1320 1320 1320 0 25 1320 1320 36 1320 1320 1320 18 1320 1320 1320 1320 6 1320 48 1320 1320 1320 1320 1320 1320 1320 1320 29 35 28 1320 26 11 1320 26 1320 1320 1320 1320 1320 10 1320 1320 31 1320 1320 1320 6 1320 1320 32 1320 1320 1320 1320 1320 1320 1320 12 1320 32 1320 1320 23 1320 13 1320 1320 20 1320 1320 37 1320 1320 12 1320
1320 1320 16 46 41 20 30 17 1320 1320 31 1320 9 1320 19 11 1320 1320 1320 1320 1320 36 25 0 1320 1320 1320 1320 1320 1320 20 1320 21 1320 31 27 1320 28 1320 28 28 36 1320 1320 1320 14 1320 12 1320 1320 46 17 1320 5 1320 1320 28 1320 1320 33 1320 1320 1320 1320 1320 1320 20 1320 1320 6 1320 1320 35 1320 1320 1320 1320 26 1320 46 1320 1320 25 1320 34 34 25 17 1320 1320 62 1320 1320 18 1320
12 1320 1320 1320 1320 1320 45 1320 30 1320 1320 6 1320 12 1320 1320 25 17 27 27 1320 38 1320 1320 0 29 1320 1320 30 1320 1320 1320 1320 34 1320 1320 1320 1320 9 1320 1320 1320 14 34 1320 1320 1320 1320 1320 32 1320 1320 1320 1320 1320 14 1320 48 31 1320 41 1320 1320 1320 24 21 1320 1320 12 1320 42 1320 1320 25 18 34 26 1320 1320 1320 47 32 1320 22 1320 1320 1320 1320 32 22 1320 1320 13 1320 1320
1320 1320 1320 1320 1320 1320 1320 1320 1320 1320 1320 28 1320 37 1320 1320 38 15 2 1320 1320 1320 1320 1320 29 0 1320 31 2 1320 1320 1320 1320 29 1320 1320 12 1320 35 1320 1320 1320 1320 1320 22 1320 1320 1320 1320 61 1320 1320 1320 1320 1320 17 1320 1320 1320 1320 24 1320 1320 1320 1320 47 1320 1320 20 1320 13 33 1320 51 45 1320 12 1320 1320 1320 1320 20 1320 7 1320 1320 1320 1320 6 12 1320 37 37 1320 1320
1320 8 1320 32 35 1320 1320 68 1320 34 1320 1320 1320 1320 60 65 1320 1320 1320 1320 42 1320 36 1320 1320 1320 0 1320 1320 59 54 23 1320 1320 1320 33 1320 84 1320 1320 47 1320 1320 1320 54 1320 21 1320 18 1320 13 1320 48 61 1320 1320 1320 1320 1320 27 51 1320 22 40 1320 1320 1320 1320 1320 1320 1320 55 43 1320 1320 1320 1320 33 31 21 42 1320 40 1320 40 1320 47 44 1320 1320 29 66 1320 40 49
1320 1320 1320 1320 1320 1320 1320 1320 1320 1320 1320 1320 1320 1320 1320 1320 1320 45 32 1320 26 1320 1320 1320 1320 31 1320 0 29 13 1320 1320 1320 1320 1320 1320 18 1320 1320 1320 1320 1320 1320 1320 23 1320 1320 1320 1320 1320 1320 1320 22 1320 1320 47 1320 1320 1320 1320 32 1320 1320 29 1320 1320 1320 1320 50 1320 18 13 1320 82 1320 1320 37 1320 37 1320 1320 38 1320 38 1320 1320 1320 1320 28 1320 1320 6 67 1320 20
1320 1320 1320 45 1320 1320 1320 1320 1320 40 1320 1320 1320 38 1320 1320 39 16 3 1320 39 1320 1320 1320 30 2 1320 29 0 39 1320 1320 1320 29 1320 1320 11 1320 1320 1320 1320 1320 1320 1320 21 1320 1320 1320 1320 1320 1320 1320 1320 1320 1320 19 1320 1320 1320 1320 23 1320 1320 37 1320 1320 1320 1320 21 1320 12 32 1320 53 1320 28 12 1320 1320 1320 42 20 1320 9 1320 1320 1320 1320 5 12 1320 35 39 1320 40
1320 62 1320 1320 90 1320 1320 1320 1320 33 1320 1320 1320 1320 104 1320 1320 1320 1320 1320 19 1320 1320 1320 1320 1320 59 13 39 0 1320 36 1320 1320 1320 1320 29 1320 1320 1320 1320 1320 1320 1320 26 1320 1320 1320 76 1320 60 1320 11 1320 1320 1320 1320 1320 1320 1320 34 1320 81 23 1320 1320 1320 1320 1320 1320 30 9 1320 1320 1320 1320 1320 1320 28 52 1320 1320 1320 1320 1320 1320 1320 1320 36 1320 87 8 1320 1320 10
1320 46 11 1320 26 2 1320 15 1320 1320 51 1320 26 1320 6 16 1320 1320 1320 1320 1320 1320 18 20 1320 1320 54 1320 1320 1320 0 1320 28 1320 1320 24 1320 32 1320 48 1320 1320 1320 1320 1320 25 43 23 44 1320 45 20 90 16 1320 1320 40 1320 1320 28 1320 46 45 1320 1320 1320 18 34 1320 25 1320 1320 1320 1320 1320 1320 1320 28 1320 1320 1320 1320 1320 1320 19 1320 39 28 1320 1320 49 1320 1320 1320 1320
1320 27 1320 24 55 1320 1320 1320 1320 15 1320 1320 1320 1320 74 1320 1320 1320 1320 1320 18 1320 1320 1320 1320 1320 23 1320 1320 36 1320 0 1320 1320 1320 45 1320 1320 1320 1320 45 1320 1320 1320 33 1320 44 1320 41 1320 25 1320 24 1320 1320 1320 1320 1320 1320 42 33 1320 46 17 1320 1320 1320 1320 1320 1320 1320 32 38 1320 1320 41 1320 42 8 21 35 42 42 1320 1320 1320 47 49 49 1320 52 1320 1320 49 26
1320 1320 32 1320 54 29 1320 13 1320 1320 1320 1320 15 1320 23 13 1320 1320 1320 1320 1320 1320 1320 21 1320 1320 1320 1320 1320 1320 28 1320 0 1320 1320 1320 1320 7 1320 31 1320 1320 1320 1320 1320 7 1320 9 1320 1320 1320 1320 1320 18 40 1320 13 1320 1320 1320 1320 18 1320 1320 1320 1320 1320 7 1320 17 1320 1320 1320 1320 1320 1320 1320 1320 1320 1320 1320 1320 1320 1320 47 21 1320 1320 1320 1320 77 1320 1320 1320 1320
36 1320 1320 22 1320 1320 19 1320 31 28 38 38 1320 32 1320 1320 19 35 27 42 1320 35 1320 1320 34 29 1320 1320 29 1320 1320 1320 1320 0 39 1320 33 1320 42 46 22 1320 1320 33 24 1320 1320 1320 1320 1320 1320 1320 1320 1320 1320 34 1320 55 15 1320 15 1320 1320 32 29 1320 1320 1320 35 51 1320 1320 18 1320 1320 2 17 1320 1320 33 14 10 29 26 1320 1320 25 35 25 20 1320 1320 1320 1320 1320
34 1320 1320 1320 1320 1320 27 1320 13 1320 1 1320 28 32 1320 1320 23 1320 1320 24 1320 6 1320 31 1320 1320 1320 1320 1320 1320 1320 1320 1320 39 0 1320 1320 1320 1320 9 29 14 38 9 1320 33 1320 34 1320 38 1320 1320 1320 35 22 1320 34 20 24 1320 1320 41 1320 1320 20 52 1320 36 1320 27 1320 1320 35 54 1320 1320 1320 1320 1320 1320 39 1320 36 1320 1320 31 28 33 1320 1320 1320 1320 1320 1320 1320
1320 24 14 32 20 22 1320 1320 1320 45 1320 1320 1320 1320 29 1320 1320 1320 1320 1320 1320 1320 6 27 1320 1320 33 1320 1320 1320 24 45 1320 1320 1320 0 1320 1320 1320 1320 28 1320 1320 1320 1320 1320 29 1320 27 1320 21 10 1320 28 1320 1320 1320 1320 1320 7 1320 1320 31 1320 1320 1320 7 1320 1320 33 1320 1320 30 1320 1320 1320 1320 7 1320 26 1320 1320 19 1320 18 1320 27 17 1320 1320 38 1320 1320 10 1320
1320 1320 1320 44 1320 1320 1320 1320 1320 36 1320 1320 1320 1320 1320 1320 1320 27 14 1320 31 1320 1320 1320 1320 12 1320 18 11 29 1320 1320 1320 33 1320 1320 0 1320 1320 1320 1320 1320 1320 1320 16 1320 1320 1320 1320 1320 1320 1320 33 1320 1320 29 1320 1320 1320 1320 22 1320 1320 31 1320 1320 1320 1320 32 1320 4 22 1320 64 1320 32 20 1320 42 1320 44 24 1320 19 1320 1320 1320 1320 10 21 1320 25 49 1320 31
1320 1320 37 1320 58 33 1320 17 1320 1320 1320 1320 22 1320 27 19 1320 1320 1320 1320 1320 1320 48 28 1320 1320 84 1320 1320 1320 32 1320 7 1320 1320 1320 1320 0 1320 37 1320 39 1320 1320 1320 14 75 16 75 77 1320 1320 112 24 43 1320 14 51 1320 57 1320 15 77 1320 1320 1320 1320 9 1320 24 1320 1320 1320 1320 1320 1320 1320 1320 1320 1320 1320 1320 1320 1320 51 22 1320 1320 1320 1320 81 1320 1320 1320 1320
14 1320 1320 1320 1320 1320 1320 1320 35 1320 1320 7 1320 16 1320 1320 33 21 34 28 1320 43 1320 1320 9 35 1320 1320 1320 1320 1320 1320 1320 42 1320 1320 1320 1320 0 1320 1320 1320 13 39 1320 1320 1320 1320 1320 29 1320 1320 1320 1320 58 18 1320 49 1320 1320 1320 1320 1320 1320 29 13 1320 1320 16 1320 47 1320 1320 17 10 1320 33 1320 1320 1320 1320 40 1320 28 1320 1320 1320 1320 1320 30 1320 1320 5 1320 1320
1320 1320 44 1320 1320 48 32 39 1320 1320 9 1320 23 1320 46 34 1320 1320 1320 30 1320 14 1320 28 1320 1320 1320 1320 1320 1320 48 1320 31 46 9 1320 1320 37 1320 0 34 9 1320 18 1320 27 1320 28 1320 42 1320 41 1320 31 18 1320 25 19 32 1320 1320 33 1320 1320 1320 1320 1320 28 1320 23 1320 1320 41 1320 1320 1320 1320 47 1320 1320 45 1320 39 1320 1320 23 32 34 1320 1320 1320 1320 1320 41 1320
1320 1320 1320 22 1320 1320 4 1320 1320 35 29 1320 33 1320 1320 1320 25 1320 1320 44 1320 29 1320 28 1320 1320 47 1320 1320 1320 1320 45 1320 22 29 28 1320 1320 1320 34 0 1320 1320 29 1320 1320 1320 1320 1320 1320 34 23 1320 33 1320 1320 1320 49 18 33 34 1320 1320 1320 1320 1320 1320 1320 1320 30 1320 1320 7 1320 1320 23 1320 21 1320 27 12 31 10 1320 1320 1320 3 14 1320 41 1320 1320 1320 21 1320
42 1320 1320 1320 1320 1320 40 1320 25 1320 15 1320 29 41 1320 1320 1320 1320 1320 28 1320 18 1320 36 1320 1320 1320 1320 1320 1320 1320 1320 1320 1320 14 1320 1320 39 1320 9 1320 0 44 21 1320 32 1320 34 1320 38 1320 1320 1320 38 9 1320 26 12 38 1320 1320 32 1320 1320 30 56 1320 30 1320 30 1320 1320 1320 58 1320 1320 1320 1320 1320 1320 1320 1320 1320 1320 1320 21 41 43 1320 1320 1320 1320 1320 1320 1320
6 1320 1320 1320 1320 1320 48 1320 26 1320 38 17 1320 10 1320 1320 27 31 1320 16 1320 32 1320 1320 14 1320 1320 1320 1320 1320 1320 1320 1320 1320 38 1320 1320 1320 13 1320 1320 44 0 29 1320 1320 1320 1320 1320 18 1320 1320 1320 1320 45 28 1320 37 34 1320 1320 76 1320 1320 20 14 1320 1320 26 1320 1320 1320 1320 17 13 1320 1320 1320 1320 1320 1320 1320 1320 1320 1320 65 1320 1320 1320 35 1320 1320 16 1320 1320
25 1320 1320 1320 1320 1320 25 1320 4 1320 9 1320 1320 23 1320 1320 15 1320 50 17 1320 4 1320 1320 34 1320 1320 1320 1320 1320 1320 1320 1320 33 9 1320 1320 1320 39 18 29 21 29 0 1320 1320 1320 1320 1320 33 1320 1320 1320 1320 28 45 1320 23 18 1320 1320 1320 1320 1320 11 44 1320 1320 1320 35 1320 1320 33 46 42 34 42 1320 1320 1320 36 40 1320 46 1320 1320 29 1320 1320 41 1320 1320 1320 1320 1320
1320 1320 1320 29 1320 1320 41 1320 1320 20 1320 1320 1320 1320 1320 1320 1320 36 21 1320 19 1320 1320 1320 1320 22 54 23 21 26 1320 33 1320 24 1320 1320 16 1320 1320 1320 1320 1320 1320 1320 0 1320 1320 1320 1320 1320 1320 1320 24 1320 1320 1320 1320 1320 1320 1320 9 1320 1320 17 1320 1320 1320 1320 1320 1320 19 17 36 1320 1320 23 19 1320 28 38 31 16 47 25 1320 1320 1320 1320 16 23 82 27 1320 1320 23
1320 1320 27 1320 1320 26 1320 13 1320 1320 33 1320 8 1320 21 9 1320 1320 1320 1320 1320 1320 1320 14 1320 1320 1320 1320 1320 1320 25 1320 7 1320 33 1320 1320 14 1320 27 1320 32 1320 1320 1320 0 1320 3 1320 1320 1320 1320 1320 11 38 1320 16 1320 1320 1320 1320 23 1320 1320 1320 1320 1320 11 1320 10 1320 1320 1320 1320 1320 1320 1320 1320 1320 1320 1320 1320 1320 1320 1320 23 37 31 1320 1320 1320 1320 1320 1320 1320
1320 18 1320 1320 18 42 1320 58 1320 1320 1320 1320 1320 1320 49 57 1320 1320 1320 1320 1320 1320 29 1320 1320 1320 21 1320 1320 1320 43 44 1320 1320 1320 29 1320 75 1320 1320 1320 1320 1320 1320 1320 1320 0 1320 3 1320 23 1320 68 55 1320 1320 1320 1320 1320 22 1320 1320 3 1320 1320 1320 1320 1320 1320 1320 1320 1320 1320 1320 1320 1320 1320 33 52 35 1320 1320 1320 1320 25 1320 1320 1320 1320 1320 10 1320 1320 1320 1320
1320 1320 24 1320 48 24 1320 11 1320 1320 34 1320 7 1320 19 7 1320 1320 1320 1320 1320 1320 35 12 1320 1320 1320 1320 1320 1320 23 1320 9 1320 34 1320 1320 16 1320 28 1320 34 1320 1320 1320 3 1320 0 1320 1320 1320 28 1320 9 1320 1320 18 1320 1320 1320 1320 25 1320 1320 1320 1320 30 13 1320 9 1320 1320 1320 1320 1320 1320 1320 1320 1320 1320 1320 1320 1320 1320 41 25 36 29 1320 1320 70 1320 1320 1320 1320
1320 15 39 43 20 42 1320 59 1320 49 1320 1320 1320 1320 50 57 1320 1320 1320 1320 58 1320 28 1320 1320 1320 18 1320 1320 76 44 41 1320 1320 1320 27 1320 75 1320 1320 1320 1320 1320 1320 1320 1320 3 1320 0 1320 20 1320 65 54 1320 1320 1320 1320 1320 21 1320 1320 6 56 1320 1320 33 1320 1320 1320 1320 1320 1320 1320 1320 1320 1320 32 49 32 1320 1320 42 1320 26 1320 1320 44 1320 1320 13 1320 1320 37 67
22 1320 1320 1320 1320 1320 57 1320 30 1320 38 35 1320 25 1320 1320 38 49 1320 16 1320 34 1320 1320 32 61 1320 1320 1320 1320 1320 1320 1320 1320 38 1320 1320 77 29 42 1320 38 18 33 1320 1320 1320 1320 1320 0 1320 1320 1320 1320 36 46 63 27 45 1320 1320 68 1320 1320 28 22 1320 68 44 1320 74 1320 1320 22 23 1320 1320 1320 1320 1320 1320 1320 1320 54 1320 57 1320 1320 1320 52 1320 1320 30 1320 1320
1320 6 36 23 30 43 1320 1320 1320 30 1320 1320 1320 1320 50 1320 1320 1320 1320 1320 41 1320 26 46 1320 1320 13 1320 1320 60 45 25 1320 1320 1320 21 1320 1320 1320 1320 34 1320 1320 1320 1320 1320 23 1320 20 1320 0 30 49 1320 1320 1320 1320 1320 1320 17 44 1320 26 38 1320 1320 28 1320 1320 52 1320 1320 31 1320 1320 1320 1320 21 33 11 31 1320 27 1320 33 1320 35 32 1320 1320 33 1320 1320 28 50
1320 1320 10 34 1320 19 26 1320 1320 1320 40 1320 25 1320 24 24 1320 1320 1320 1320 1320 1320 11 17 1320 1320 1320 1320 1320 1320 20 1320 1320 1320 1320 10 1320 1320 1320 41 23 1320 1320 1320 1320 1320 1320 28 1320 1320 30 0 1320 19 1320 1320 1320 1320 1320 17 1320 1320 1320 1320 1320 1320 6 1320 1320 23 1320 1320 26 1320 1320 1320 1320 9 1320 31 1320 1320 15 1320 24 1320 20 9 1320 1320 1320 1320 1320 2 1320
1320 51 1320 38 79 1320 1320 100 1320 24 1320 1320 1320 1320 95 95 1320 1320 1320 1320 10 1320 1320 1320 1320 1320 48 22 1320 11 90 24 1320 1320 1320 1320 33 112 1320 1320 1320 1320 1320 1320 24 1320 68 1320 65 1320 49 1320 0 89 1320 1320 1320 1320 1320 65 31 1320 70 15 1320 1320 1320 1320 1320 1320 1320 11 1320 1320 1320 1320 1320 63 17 41 1320 1320 59 1320 82 1320 1320 1320 38 1320 76 19 1320 1320 2
1320 1320 15 1320 40 17 35 12 1320 1320 35 1320 9 1320 15 6 1320 1320 1320 1320 1320 40 26 5 1320 1320 61 1320 1320 1320 16 1320 18 1320 35 28 1320 24 1320 31 33 38 1320 1320 1320 11 55 9 54 1320 1320 19 89 0 1320 1320 27 1320 1320 34 1320 34 56 1320 1320 1320 21 22 1320 8 1320 1320 1320 1320 1320 1320 1320 28 1320 1320 1320 1320 30 1320 33 34 30 22 1320 1320 62 1320 1320 21 1320
45 1320 1320 1320 1320 1320 49 51 30 1320 23 1320 37 44 59 1320 1320 72 1320 30 1320 25 1320 1320 1320 1320 1320 1320 1320 1320 1320 1320 40 1320 22 1320 1320 43 58 18 1320 9 45 28 1320 38 1320 1320 1320 36 1320 1320 1320 1320 0 1320 29 9 45 1320 1320 33 1320 1320 35 56 1320 35 1320 38 1320 1320 1320 57 56 1320 1320 1320 1320 1320 1320 1320 1320 1320 1320 22 1320 1320 1320 1320 1320 1320 61 1320 1320
26 1320 1320 1320 1320 1320 50 1320 42 1320 1320 12 1320 25 1320 1320 34 3 16 40 1320 1320 1320 1320 14 17 1320 47 19 1320 1320 1320 1320 34 1320 1320 29 1320 18 1320 1320 1320 28 45 1320 1320 1320 1320 1320 46 1320 1320 1320 1320 1320 0 1320 1320 38 1320 36 1320 1320 1320 35 30 1320 1320 3 1320 29 1320 1320 34 28 33 19 1320 1320 1320 48 28 1320 12 1320 1320 1320 1320 22 16 1320 1320 20 1320 1320
1320 1320 42 1320 1320 41 51 26 1320 1320 34 1320 20 1320 36 25 1320 1320 1320 1320 1320 39 1320 28 1320 1320 1320 1320 1320 1320 40 1320 13 1320 34 1320 1320 14 1320 25 1320 26 1320 1320 1320 16 1320 18 1320 63 1320 1320 1320 27 29 1320 0 37 1320 1320 1320 9 1320 1320 1320 1320 1320 7 1320 23 1320 1320 1320 1320 1320 1320 1320 1320 1320 1320 1320 1320 1320 1320 1320 8 48 44 1320 1320 1320 1320 1320 1320 1320
36 1320 1320 1320 1320 1320 47 1320 24 1320 21 1320 41 36 1320 1320 36 64 1320 21 1320 21 1320 1320 48 1320 1320 1320 1320 1320 1320 1320 1320 55 20 1320 1320 51 49 19 49 12 37 23 1320 1320 1320 1320 1320 27 1320 1320 1320 1320 9 1320 37 0 40 1320 1320 41 1320 1320 28 47 1320 42 1320 42 1320 1320 55 48 47 1320 1320 1320 1320 1320 58 1320 1320 1320 1320 30 48 1320 1320 61 1320 1320 52 1320 1320
28 1320 1320 31 1320 1320 14 1320 17 1320 23 1320 1320 24 1320 1320 7 1320 37 29 1320 20 1320 1320 31 1320 1320 1320 1320 1320 1320 1320 1320 15 24 1320 1320 1320 1320 32 18 38 34 18 1320 1320 1320 1320 1320 45 1320 1320 1320 1320 45 38 1320 40 0 1320 30 1320 1320 1320 17 1320 1320 1320 1320 40 1320 1320 19 1320 1320 17 28 1320 1320 1320 20 23 27 34 1320 1320 20 30 37 28 1320 1320 1320 1320 1320
1320 19 20 33 17 26 1320 41 1320 44 1320 1320 1320 1320 33 38 1320 1320 1320 1320 1320 1320 10 33 1320 1320 27 1320 1320 1320 28 42 1320 1320 1320 7 1320 57 1320 1320 33 1320 1320 1320 1320 1320 22 1320 21 1320 17 17 65 34 1320 1320 1320 1320 1320 0 1320 1320 24 1320 1320 1320 13 1320 1320 40 1320 1320 33 1320 1320 1320 1320 12 50 24 1320 1320 23 1320 17 1320 32 24 1320 1320 31 1320 1320 16 1320
1320 1320 1320 22 1320 1320 32 1320 1320 18 53 1320 1320 43 1320 1320 34 1320 23 1320 23 50 1320 1320 41 24 51 32 23 34 1320 33 1320 15 1320 1320 22 1320 1320 1320 34 1320 1320 1320 9 1320 1320 1320 1320 1320 44 1320 31 1320 1320 36 1320 1320 30 1320 0 1320 1320 19 1320 1320 1320 1320 1320 1320 26 25 27 1320 1320 14 16 47 30 33 22 10 38 25 1320 1320 37 46 18 20 1320 36 1320 1320 29
1320 1320 1320 1320 72 1320 1320 31 1320 1320 42 1320 28 1320 41 31 1320 1320 1320 60 1320 47 1320 1320 1320 1320 1320 1320 1320 1320 46 1320 18 1320 41 1320 1320 15 1320 33 1320 32 76 1320 1320 23 1320 25 1320 68 1320 1320 1320 34 33 1320 9 41 1320 1320 1320 0 1320 1320 1320 88 1320 12 1320 31 1320 1320 1320 89 1320 1320 1320 1320 1320 1320 1320 1320 1320 1320 65 11 1320 1320 1320 1320 95 1320 1320 1320 1320
1320 20 1320 48 19 43 1320 60 1320 54 1320 1320 1320 1320 50 59 1320 1320 1320 1320 64 1320 31 1320 1320 1320 22 1320 1320 81 45 46 1320 1320 1320 31 1320 77 1320 1320 1320 1320 1320 1320 1320 1320 3 1320 6 1320 26 1320 70 56 1320 1320 1320 1320 1320 24 1320 1320 0 61 1320 1320 1320 1320 1320 1320 1320 1320 1320 1320 1320 1320 1320 36 54 37 1320 1320 46 1320 26 1320 1320 1320 1320 1320 8 1320 1320 1320 72
1320 41 1320 23 1320 1320 44 1320 1320 9 1320 1320 1320 1320 1320 1320 1320 1320 38 1320 5 1320 1320 1320 1320 1320 40 29 37 23 1320 17 1320 32 1320 1320 31 1320 1320 1320 1320 1320 1320 1320 17 1320 1320 1320 56 1320 38 1320 15 1320 1320 1320 1320 1320 1320 1320 19 1320 61 0 1320 1320 1320 1320 1320 1320 34 17 36 1320 1320 31 35 49 11 28 31 29 44 1320 1320 1320 1320 1320 32 39 68 29 1320 1320 15
15 1320 1320 1320 1320 1320 29 1320 7 1320 20 29 1320 12 1320 1320 10 1320 42 12 1320 14 1320 1320 24 1320 1320 1320 1320 1320 1320 1320 1320 29 20 1320 1320 1320 29 1320 1320 30 20 11 1320 1320 1320 1320 1320 28 1320 1320 1320 1320 35 35 1320 28 17 1320 1320 1320 1320 1320 0 34 1320 1320 35 1320 1320 1320 1320 37 32 31 35 1320 1320 1320 37 35 1320 37 1320 1320 1320 1320 1320 33 1320 1320 1320 1320 1320
20 1320 1320 1320 1320 1320 1320 1320 40 1320 1320 19 1320 23 1320 1320 1320 33 1320 29 1320 46 1320 1320 21 47 1320 1320 1320 1320 1320 1320 1320 1320 52 1320 1320 1320 13 1320 1320 56 14 44 1320 1320 1320 1320 1320 22 1320 1320 1320 1320 56 30 1320 47 1320 1320 1320 88 1320 1320 34 0 1320 1320 28 1320 60 1320 1320 4 2 1320 1320 1320 1320 1320 1320 1320 1320 41 1320 77 1320 1320 1320 1320 1320 1320 11 1320 1320
1320 31 8 1320 23 16 1320 1320 1320 1320 1320 1320 29 1320 23 26 1320 1320 1320 1320 1320 1320 6 20 1320 1320 1320 1320 1320 1320 18 1320 1320 1320 1320 7 1320 1320 1320 1320 1320 1320 1320 1320 1320 1320 1320 30 33 1320 28 6 1320 21 1320 1320 1320 1320 1320 13 1320 1320 1320 1320 1320 1320 0 1320 1320 27 1320 1320 1320 1320 1320 1320 1320 10 1320 31 1320 1320 19 1320 18 1320 26 15 1320 1320 1320 1320 1320 6 1320
1320 1320 1320 1320 60 1320 1320 20 1320 1320 36 1320 17 1320 30 19 1320 1320 1320 1320 1320 1320 1320 1320 1320 1320 1320 1320 1320 1320 34 1320 7 1320 36 1320 1320 9 1320 28 1320 30 1320 1320 1320 11 1320 13 1320 68 1320 1320 1320 22 35 1320 7 42 1320 1320 1320 12 1320 1320 1320 1320 1320 0 1320 20 1320 1320 1320 1320 1320 1320 1320 1320 1320 1320 1320 1320 1320 1320 53 15 1320 1320 1320 1320 83 1320 1320 1320 1320
24 1320 1320 1320 1320 1320 1320 1320 1320 1320 1320 9 1320 24 1320 1320 34 6 19 39 1320 1320 1320 1320 12 20 1320 50 21 1320 1320 1320 1320 35 1320 1320 32 1320 16 1320 1320 1320 26 1320 1320 1320 1320 1320 1320 44 1320 1320 1320 1320 1320 3 1320 1320 1320 1320 1320 1320 1320 1320 35 28 1320 1320 0 1320 32 1320 1320 32 26 1320 22 1320 1320 1320 1320 30 1320 14 1320 1320 1320 1320 1320 18 1320 1320 17 1320 1320
1320 1320 22 50 47 25 32 18 1320 1320 27 1320 3 1320 23 12 1320 1320 1320 51 1320 32 32 6 1320 1320 1320 1320 1320 1320 25 1320 17 51 27 33 1320 24 1320 23 30 30 1320 35 1320 10 1320 9 1320 1320 52 23 1320 8 38 1320 23 42 40 40 1320 31 1320 1320 1320 1320 27 20 1320 0 1320 1320 37 1320 1320 1320 1320 31 1320 51 43 1320 29 1320 40 28 27 22 1320 1320 69 1320 1320 24 1320
1320 1320 1320 1320 1320 1320 1320 1320 1320 1320 1320 41 1320 1320 1320 1320 1320 26 15 1320 34 1320 1320 1320 42 13 1320 18 12 30 1320 1320 1320 1320 1320 1320 4 1320 47 1320 1320 1320 1320 1320 19 1320 1320 1320 1320 74 1320 1320 1320 1320 1320 29 1320 1320 1320 1320 26 1320 1320 34 1320 60 1320 1320 32 1320 0 24 1320 63 57 1320 22 1320 1320 1320 1320 27 1320 20 1320 1320 1320 1320 12 23 1320 25 49 1320 33
1320 1320 1320 39 1320 1320 1320 1320 1320 25 1320 1320 1320 1320 1320 1320 1320 48 34 1320 14 1320 1320 1320 1320 33 55 13 32 9 1320 32 1320 1320 1320 1320 22 1320 1320 1320 1320 1320 1320 1320 17 1320 1320 1320 1320 1320 1320 1320 11 1320 1320 1320 1320 1320 1320 1320 25 1320 1320 17 1320 1320 1320 1320 1320 1320 24 0 1320 1320 1320 39 35 1320 24 1320 44 33 1320 1320 1320 1320 1320 1320 28 1320 84 12 1320 1320 9
1320 1320 1320 15 1320 1320 8 1320 1320 28 35 1320 1320 1320 1320 1320 26 1320 1320 48 1320 34 1320 35 1320 1320 43 1320 1320 1320 1320 38 1320 18 35 30 1320 1320 1320 41 7 1320 1320 33 36 1320 1320 1320 1320 1320 31 26 1320 1320 1320 1320 1320 55 19 33 27 1320 1320 36 1320 1320 1320 1320 1320 37 1320 1320 0 1320 1320 19 1320 23 41 22 5 27 12 1320 1320 1320 10 18 42 37 1320 1320 1320 25 1320
23 1320 1320 1320 1320 1320 1320 1320 43 1320 1320 23 1320 27 1320 1320 1320 37 50 31 1320 49 1320 1320 25 51 1320 82 53 1320 1320 1320 1320 1320 54 1320 64 1320 17 1320 1320 58 17 46 1320 1320 1320 1320 1320 22 1320 1320 1320 1320 57 34 1320 48 1320 1320 1320 89 1320 1320 37 4 1320 1320 32 1320 63 1320 1320 0 7 1320 1320 1320 1320 1320 1320 1320 1320 45 1320 78 1320 1320 1320 46 1320 1320 14 1320 1320
18 1320 1320 1320 1320 1320 1320 1320 38 1320 1320 17 1320 21 1320 1320 1320 31 1320 28 1320 45 1320 1320 18 45 1320 1320 1320 1320 1320 1320 1320 1320 1320 1320 1320 1320 10 1320 1320 1320 13 42 1320 1320 1320 1320 1320 23 1320 1320 1320 1320 56 28 1320 47 1320 1320 1320 1320 1320 1320 32 2 1320 1320 26 1320 57 1320 1320 7 0 1320 1320 1320 1320 1320 1320 1320 1320 39 1320 1320 1320 1320 1320 40 1320 1320 9 1320 1320
1320 1320 1320 22 1320 1320 21 1320 32 27 40 1320 1320 32 1320 1320 20 1320 26 1320 35 36 1320 1320 34 1320 1320 1320 28 1320 1320 41 1320 2 1320 1320 32 1320 1320 1320 23 1320 1320 34 23 1320 1320 1320 1320 1320 1320 1320 1320 1320 1320 33 1320 1320 17 1320 14 1320 1320 31 31 1320 1320 1320 1320 1320 1320 39 19 1320 1320 0 16 1320 40 34 15 8 30 25 1320 1320 26 1320 24 19 1320 1320 1320 1320 1320
34 1320 1320 36 1320 1320 36 1320 39 35 1320 27 1320 30 1320 1320 27 19 10 45 38 1320 1320 1320 26 12 1320 37 12 1320 1320 1320 1320 17 1320 1320 20 1320 33 1320 1320 1320 1320 42 19 1320 1320 1320 1320 1320 1320 1320 1320 1320 1320 19 1320 1320 28 1320 16 1320 1320 35 35 1320 1320 1320 22 1320 22 35 1320 1320 1320 16 0 1320 1320 1320 31 9 1320 9 1320 1320 1320 1320 10 4 1320 1320 1320 1320 1320
1320 25 17 26 27 26 25 1320 1320 40 45 1320 34 1320 32 1320 1320 1320 1320 1320 1320 1320 12 26 1320 1320 33 1320 1320 1320 28 42 1320 1320 1320 7 1320 1320 1320 47 21 1320 1320 1320 1320 1320 33 1320 32 1320 21 9 63 28 1320 1320 1320 1320 1320 12 47 1320 36 49 1320 1320 10 1320 1320 31 1320 1320 23 1320 1320 1320 1320 0 48 22 26 1320 12 1320 25 1320 20 12 1320 1320 43 1320 1320 7 1320
1320 35 1320 26 63 1320 1320 1320 1320 14 1320 1320 1320 1320 81 1320 1320 1320 1320 1320 11 1320 1320 1320 1320 1320 31 37 1320 28 1320 8 1320 1320 1320 1320 42 1320 1320 1320 1320 1320 1320 1320 28 1320 52 1320 49 1320 33 1320 17 1320 1320 1320 1320 1320 1320 50 30 1320 54 11 1320 1320 1320 1320 1320 1320 1320 24 41 1320 1320 40 1320 48 0 26 37 39 47 1320 1320 1320 1320 1320 44 1320 60 35 1320 1320 18
1320 17 1320 12 40 1320 30 1320 1320 20 56 1320 1320 1320 54 1320 1320 1320 1320 1320 32 1320 32 46 1320 1320 21 1320 1320 52 1320 21 1320 33 1320 26 1320 1320 1320 1320 27 1320 1320 1320 38 1320 35 1320 32 1320 11 31 41 1320 1320 1320 1320 1320 1320 24 33 1320 37 28 1320 1320 31 1320 1320 51 1320 1320 22 1320 1320 34 1320 22 26 0 21 38 22 1320 41 1320 29 29 51 1320 45 1320 1320 29 42
1320 1320 1320 12 1320 1320 13 1320 36 23 38 1320 1320 43 1320 1320 27 1320 40 49 36 37 1320 1320 47 1320 42 1320 42 1320 1320 35 1320 14 39 1320 44 1320 1320 45 12 1320 1320 36 31 1320 1320 1320 1320 1320 31 1320 1320 1320 1320 48 1320 58 20 1320 22 1320 1320 31 37 1320 1320 1320 1320 43 1320 44 5 1320 1320 15 31 26 37 21 0 22 16 40 1320 1320 15 24 37 34 1320 1320 1320 1320 1320
37 1320 1320 27 1320 1320 29 1320 38 27 46 34 1320 33 1320 1320 25 28 18 46 32 43 1320 1320 32 20 1320 38 20 1320 1320 42 1320 10 1320 1320 24 1320 40 1320 31 1320 1320 40 16 1320 1320 1320 1320 1320 1320 1320 1320 1320 1320 28 1320 1320 23 1320 10 1320 1320 29 35 1320 1320 1320 30 1320 27 33 27 1320 1320 8 9 1320 39 38 22 0 38 18 1320 1320 34 1320 16 12 1320 1320 1320 1320 1320
1320 33 24 21 39 1320 14 1320 1320 35 36 1320 32 1320 1320 1320 1320 1320 1320 1320 1320 37 23 25 1320 1320 40 1320 1320 1320 1320 42 1320 29 36 19 1320 1320 1320 39 10 1320 1320 1320 47 1320 1320 1320 42 1320 27 15 59 30 1320 1320 1320 1320 27 23 38 1320 46 44 1320 1320 19 1320 1320 29 1320 1320 12 1320 1320 30 1320 12 47 22 16 38 0 1320 36 1320 9 8 54 1320 54 1320 1320 13 1320
32 1320 1320 1320 1320 1320 44 1320 42 1320 1320 22 1320 30 1320 1320 32 11 6 45 1320 1320 1320 1320 22 7 1320 38 9 1320 1320 1320 1320 26 1320 1320 19 1320 28 1320 1320 1320 1320 46 25 1320 1320 1320 1320 54 1320 1320 1320 1320 1320 12 1320 1320 34 1320 25 1320 1320 1320 37 41 1320 1320 14 1320 20 1320 1320 45 39 25 9 1320 1320 1320 40 18 1320 0 1320 1320 1320 1320 11 6 1320 1320 31 1320 1320
1320 33 18 1320 7 18 1320 34 1320 1320 1320 1320 42 1320 24 34 1320 1320 1320 1320 1320 1320 13 34 1320 1320 40 1320 1320 1320 19 1320 47 1320 1320 18 1320 51 1320 1320 1320 1320 1320 1320 1320 1320 25 41 26 1320 33 24 82 33 1320 1320 1320 1320 1320 17 1320 65 26 1320 1320 1320 18 53 1320 40 1320 1320 1320 1320 1320 1320 1320 25 1320 41 1320 1320 36 1320 0 1320 1320 33 1320 1320 30 1320 1320 25 1320
1320 1320 1320 1320 1320 1320 52 34 1320 1320 32 1320 25 1320 44 1320 1320 1320 1320 49 1320 37 1320 34 1320 1320 1320 1320 1320 1320 1320 1320 21 1320 31 1320 1320 22 1320 23 1320 21 65 1320 1320 23 1320 25 1320 57 1320 1320 1320 34 22 1320 8 30 1320 1320 1320 11 1320 1320 1320 77 1320 15 1320 28 1320 1320 1320 78 1320 1320 1320 1320 1320 1320 1320 1320 1320 1320 1320 0 50 48 1320 1320 1320 1320 1320 1320 1320
1320 1320 29 24 1320 38 6 1320 1320 38 28 1320 30 1320 42 36 26 1320 1320 45 1320 28 1320 25 1320 1320 47 1320 1320 1320 39 47 1320 25 28 27 1320 1320 1320 32 3 41 1320 29 1320 37 1320 36 1320 1320 35 20 1320 30 1320 1320 48 48 20 32 37 1320 1320 1320 1320 1320 26 1320 1320 27 1320 1320 10 1320 1320 26 1320 20 1320 29 15 34 9 1320 1320 50 0 11 1320 44 1320 1320 1320 19 1320
1320 37 18 29 37 27 17 1320 1320 43 33 1320 24 1320 31 28 1320 1320 1320 1320 1320 35 20 17 1320 1320 44 1320 1320 1320 28 49 1320 35 33 17 1320 1320 1320 34 14 43 1320 1320 1320 31 1320 29 44 1320 32 9 1320 22 1320 1320 44 1320 30 24 46 1320 1320 1320 1320 1320 15 1320 1320 22 1320 1320 18 1320 1320 1320 1320 12 1320 29 24 1320 8 1320 33 48 11 0 1320 1320 1320 1320 1320 9 1320
1320 1320 1320 40 1320 1320 44 1320 1320 35 1320 1320 1320 39 1320 1320 37 20 6 1320 34 1320 1320 1320 32 6 1320 28 5 36 1320 49 1320 25 1320 1320 10 1320 1320 1320 1320 1320 1320 1320 16 1320 1320 1320 1320 1320 1320 1320 38 1320 1320 22 1320 1320 37 1320 18 1320 1320 32 1320 1320 1320 1320 1320 1320 12 28 42 1320 1320 24 10 1320 44 51 37 16 54 11 1320 1320 1320 1320 0 11 1320 34 1320 1320 36
30 1320 1320 39 1320 1320 38 1320 38 39 49 23 1320 28 1320 1320 27 16 9 42 1320 44 1320 1320 22 12 1320 1320 12 1320 1320 1320 1320 20 1320 1320 21 1320 30 1320 41 1320 35 41 23 1320 1320 1320 1320 52 1320 1320 1320 1320 1320 16 1320 61 28 1320 20 1320 1320 39 33 1320 1320 1320 18 1320 23 1320 37 46 40 19 4 1320 1320 1320 34 12 1320 6 1320 1320 44 1320 11 0 1320 1320 33 1320 1320
1320 28 47 56 23 48 1320 64 1320 61 1320 1320 71 1320 55 64 1320 1320 1320 1320 70 1320 37 62 1320 1320 29 1320 1320 87 49 52 77 1320 1320 38 1320 81 1320 1320 1320 1320 1320 1320 82 1320 10 70 13 1320 33 1320 76 62 1320 1320 1320 1320 1320 31 1320 95 8 68 1320 1320 1320 83 1320 69 1320 84 1320 1320 1320 1320 1320 43 60 45 1320 1320 54 1320 30 1320 1320 1320 1320 1320 0 95 1320 1320 78
1320 1320 1320 1320 1320 1320 1320 1320 1320 1320 1320 1320 1320 1320 1320 1320 1320 51 1320 1320 25 1320 1320 1320 1320 37 66 6 35 8 1320 1320 1320 1320 1320 1320 25 1320 1320 1320 1320 1320 1320 1320 27 1320 1320 1320 1320 1320 1320 1320 19 1320 1320 1320 1320 1320 1320 1320 36 1320 1320 29 1320 1320 1320 1320 1320 1320 25 12 1320 1320 1320 1320 1320 1320 35 1320 1320 1320 1320 1320 1320 1320 1320 1320 34 1320 95 0 1320 1320 17
18 1320 1320 1320 1320 1320 1320 1320 1320 1320 1320 10 1320 21 1320 1320 1320 23 36 31 1320 1320 1320 1320 13 37 1320 67 39 1320 1320 1320 1320 1320 1320 1320 49 1320 5 1320 1320 1320 16 1320 1320 1320 1320 1320 1320 30 1320 1320 1320 1320 61 20 1320 52 1320 1320 1320 1320 1320 1320 1320 11 1320 1320 17 1320 49 1320 1320 14 9 1320 1320 1320 1320 1320 1320 1320 1320 31 1320 1320 1320 1320 1320 33 1320 1320 0 1320 1320
1320 32 12 32 29 21 25 1320 1320 46 40 1320 27 1320 1320 1320 1320 1320 1320 1320 1320 1320 12 18 1320 1320 40 1320 1320 1320 1320 49 1320 1320 1320 10 1320 1320 1320 41 21 1320 1320 1320 1320 1320 1320 1320 37 1320 28 2 1320 21 1320 1320 1320 1320 1320 16 1320 1320 1320 1320 1320 1320 6 1320 1320 24 1320 1320 25 1320 1320 1320 1320 7 1320 29 1320 1320 13 1320 25 1320 19 9 1320 1320 1320 1320 1320 0 1320
1320 53 1320 1320 80 1320 1320 1320 1320 24 1320 1320 1320 1320 95 1320 1320 1320 1320 1320 10 1320 1320 1320 1320 1320 49 20 40 10 1320 26 1320 1320 1320 1320 31 1320 1320 1320 1320 1320 1320 1320 23 1320 1320 1320 67 1320 50 1320 2 1320 1320 1320 1320 1320 1320 1320 29 1320 72 15 1320 1320 1320 1320 1320 1320 33 9 1320 1320 1320 1320 1320 1320 18 42 1320 1320 1320 1320 1320 1320 1320 1320 36 1320 78 17 1320 1320 0
EOF
